c 2022-05-16 12:00:17 by qbfdd.py,v 1.2.2
c qbfdd.py /tmp/1test.cnf /home/lagniez/Works/Softs/d4/scripts/testPreproc.sh -m ddmin -g b -qS
c 
c mode: ddmin
c rounds: 2
c test runs: 3046
c time elapsed: 112.84s
c total: clauses  : -205 (95.79%)
c        variables: -0 (0.00%)
c        literals : -955 (98.05%)
c 
p cnf 47 9
-4 13 0
-13 4 0
2 11 0
6 -11 -13 0
7 11 0
13 10 0
-6 -10 0
-2 37 0
-7 -37 0
